WARNING: for repeatability, setting FPU to use double precision
============================[ Problem Statistics ]=============================
|                                                                             |
|  Number of variables:           100                                         |
|  Number of clauses:             449                                         |
|  Parse time:                   0.00 s                                       |
|  Eliminated clauses:           0.00 Mb                                      |
|  Simplification time:          0.00 s                                       |
|                                                                             |
============================[ Search Statistics ]==============================
| Conflicts |          ORIGINAL         |          LEARNT          | Progress |
|           |    Vars  Clauses Literals |    Limit  Clauses Lit/Cl |          |
===============================================================================
|       100 |      99      448     1352 |      164      100      8 |  0.010 % |
===============================================================================
restarts              : 2
conflicts             : 200            (80225 /sec)
decisions             : 264            (0.00 % random) (105897 /sec)
propagations          : 4567           (1831929 /sec)
conflict literals     : 1412           (16.20 % deleted)
Memory used           : 13.00 MB
CPU time              : 0.002493 s

SATISFIABLE
